Water Network: 9
***********************************************************************************************

-------------------------------- Solving Reduced Model using gurobi --------------------------
WDN Model Name: exact_reduced_wdn.mod
Gurobi 13.0.0: Set parameter LogToConsole to value 1
  tech:outlev = 1
  tech:outlev_mp = 1
Set parameter Presolve to value 1
  pre:solve = 1
Set parameter Aggregate to value 1
  pre:aggregate = 1
Set parameter TimeLimit to value 600
  lim:time = 600
Set parameter NumericFocus to value 1
  alg:numericfocus = 1
Set parameter OBBT to value 0
  mip:obbt = 0
Set parameter ScaleFlag to value 1
  pre:scale = 1
Set parameter Method to value 2
  alg:method = 2
Set parameter NodeMethod to value 1
  mip:nodemethod = 1
Set parameter NonConvex to value 2
  qp:nonconvex = 2
Set parameter MIPFocus to value 1
  mip:focus = 1
Set parameter NLPHeur to value 1
  alg:nlpheur = 1
Set parameter VarBranch to value 0
  mip:varbranch = 0
Set parameter MIPGapAbs to value 1e-06
  mip:gapabs = 9.9999999999999995e-07
Set parameter MIPGap to value 1e-09
  mip:gap = 1.0000000000000001e-09
Set parameter FeasibilityTol to value 1e-06
  alg:feastol = 9.9999999999999995e-07
  cvt:pre:feastol = 9.9999999999999995e-07
  cvt:pre:feastolrel = 1.0000000000000001e-09
  sol:chk:feastol = 9.9999999999999995e-07
  sol:chk:feastolrel = 1.0000000000000001e-09
Set parameter Heuristics to value 0.05
  mip:heurfrac = 0.050000000000000003

AMPL MP initial flat model has 210 variables (0 integer, 0 binary);
Objectives: 1 linear; 
Constraints:  384 linear; 232 quadratic;
Algebraic expressions:  58 div; 116 powconstexp;

AMPL MP final model has 616 variables (0 integer, 0 binary);
Objectives: 1 linear; 
Constraints:  442 linear; 232 quadratic;
Algebraic expressions:  58 div; 116 powconstexp;


Set parameter InfUnbdInfo to value 1
Gurobi Optimizer version 13.0.0 build v13.0.0rc1 (linux64 - "Debian GNU/Linux 13 (trixie)")

CPU model: AMD Ryzen Threadripper PRO 5975WX 32-Cores, instruction set [SSE2|AVX|AVX2]
Thread count: 32 physical cores, 64 logical processors, using up to 32 threads

Non-default parameters:
TimeLimit  600
MIPGap  1e-09
MIPGapAbs  1e-06
Method  2
ScaleFlag  1
MIPFocus  1
NodeMethod  1
OBBT  0
NLPHeur  1
VarBranch  0
InfUnbdInfo  1
NonConvex  2
NumericFocus  1
Presolve  1

Optimize a model with 442 rows, 616 columns and 984 nonzeros (Min)
Model fingerprint: 0xbb86a5b6
Model has 58 linear objective coefficients
Model has 58 general nonlinear constraints (406 nonlinear terms)
Variable types: 616 continuous, 0 integer (0 binary)
Coefficient statistics:
  Matrix range     [1e+00, 1e+07]
  Objective range  [1e+00, 1e+00]
  Bounds range     [3e-13, 5e+12]
  RHS range        [3e-04, 5e+07]
  NLCon coe range  [3e-13, 4e+02]
Warning: Model contains large bounds
Presolve model has 58 nlconstr
Added 464 variables to disaggregate expressions
Presolve removed 1 rows and 349 columns
Presolve time: 0.01s
Presolved: 2532 rows, 790 columns, 5401 nonzeros
Presolved model has 232 bilinear constraint(s)
Presolved model has 174 nonlinear constraint(s)

Solving non-convex NLP to global optimality

Variable types: 790 continuous, 0 integer (0 binary)
Root barrier log...

Ordering time: 0.00s

Barrier statistics:
 AA' NZ     : 1.631e+03
 Factor NZ  : 3.997e+03
 Factor Ops : 3.916e+04 (less than 1 second per iteration)
 Threads    : 1

                  Objective                Residual
Iter       Primal          Dual         Primal    Dual     Compl     Time
   0   5.79163754e+07 -9.55647430e+12  9.06e+12 0.00e+00  8.96e+08     0s
   1   5.79163754e+07 -1.34905844e+14  8.38e+12 2.75e-02  1.31e+10     0s
   2   5.79163754e+07 -2.14108335e+14  7.14e+12 2.97e-02  5.49e+10     0s
   3   5.79163754e+07 -2.66427541e+14  5.10e+12 4.33e-02  1.39e+11     0s
   4   5.79163754e+07 -1.96202077e+14  2.66e+12 1.34e-01  1.65e+11     0s
   5   5.79163754e+07 -3.92297585e+13  3.45e+11 2.14e-01  4.75e+10     0s
   6   5.79163754e+07 -2.93503187e+12  2.36e+10 5.58e-02  5.36e+09     0s
   7   5.79163754e+07  1.41569302e+11  5.71e+07 6.27e-03  2.10e+07     0s
   8   5.79163754e+07  4.70268011e+08  3.70e+03 1.83e-05  1.97e+03     0s
   9   5.79163754e+07  5.79506279e+07  4.75e-01 1.51e-09  4.71e-02     0s
  10   5.79163754e+07  5.79174829e+07  3.03e-02 4.87e-11  1.82e-03     0s
  11   5.79163754e+07  5.79163760e+07  9.77e-04 2.62e-14  1.32e-06     0s
  12   5.79163754e+07  5.79163754e+07  9.77e-04 1.21e-13  1.31e-09     0s
  13   5.79163754e+07  5.79163754e+07  9.77e-04 5.71e-16  1.31e-12     0s
  14   5.79163754e+07  5.79163754e+07  9.77e-04 5.27e-16  1.31e-15     0s
  15   5.79163754e+07  5.79163754e+07  9.77e-04 1.14e-15  6.02e-18     0s
  16   5.79163754e+07 -9.55647430e+12  9.06e+12 0.00e+00  8.96e+08     0s
  17   5.79163754e+07 -8.83927063e+12  8.53e+12 8.24e-04  5.04e+09     0s
  18   5.79163754e+07 -2.65952972e+11  4.79e+12 3.92e-01  2.21e+10     0s
  19   5.79163754e+07  6.83673363e+11  4.41e+10 6.19e-02  3.27e+09     0s
  20   5.79163754e+07 -9.09254913e+10  4.55e+06 3.79e-03  3.58e+06     0s
  21   5.79163754e+07 -5.26523603e+08  3.37e+04 2.42e-05  2.93e+04     0s
  22   5.79163754e+07  5.79357993e+07  2.72e+01 4.43e-09  4.77e+01     0s
  23   5.79163754e+07  5.79164305e+07  8.44e-02 9.21e-12  1.94e-01     0s
  24   5.79163754e+07  5.79163773e+07  8.65e-03 3.05e-13  1.82e-02     0s
  25   5.79163754e+07  5.79163754e+07  5.41e-04 3.94e-15  9.70e-05     0s
  26   5.79163754e+07  5.79163754e+07  1.08e-03 2.36e-15  2.50e-07     0s
  27   5.79163754e+07  5.79163754e+07  5.41e-04 8.71e-12  1.57e-07     0s
  28   5.79163754e+07  5.79163754e+07  5.41e-04 1.61e-14  1.37e-09     0s
  29   5.79163754e+07  5.79163754e+07  5.41e-04 1.96e-14  1.87e-12     0s
  30   5.79163754e+07  5.79163754e+07  5.41e-04 1.40e-09  4.72e-12     0s
  31   5.79163754e+07  5.79163754e+07  5.41e-04 4.91e-08  2.07e-15     0s
  32   5.79163754e+07  5.79163754e+07  5.41e-04 2.27e-01  5.39e-13     0s
  33   5.79163754e+07  5.79163754e+07  1.08e-03 2.26e-01  7.95e-16     1s
  34   5.79163754e+07  5.79163754e+07  1.08e-03 4.36e-04  6.18e-14     1s
  35   5.79163754e+07  5.79163754e+07  1.08e-03 6.85e-04  3.15e-11     1s
  36   5.79163754e+07  5.79163754e+07  1.62e-03 1.12e-03  4.77e-10     1s
  37   5.79163754e+07  5.79163754e+07  1.08e-03 5.65e-04  8.74e-10     1s
  38   5.79163754e+07  5.79163754e+07  1.08e-03 2.61e-07  1.15e-10     1s
  39   5.79163754e+07  5.79163754e+07  1.08e-03 1.25e-07  1.12e-10     1s
  40   5.79163754e+07  5.79163754e+07  1.08e-03 1.85e-08  3.02e-11     1s
  41   5.79163754e+07  5.79163754e+07  5.41e-04 8.76e-09  2.94e-12     1s
  42   5.79163754e+07  5.79163754e+07  1.08e-03 2.18e-07  1.74e-12     1s
  43   5.79163754e+07  5.79163754e+07  5.41e-04 4.91e-06  1.45e-10     1s
  44   5.79163754e+07  5.79163754e+07  1.08e-03 5.82e-07  1.71e-11     1s
  45   5.79163754e+07  5.79163754e+07  5.41e-04 3.94e-06  1.93e-10     1s
  46   5.79163754e+07  5.79163754e+07  5.41e-04 2.01e-06  9.84e-11     1s
  47   5.79163754e+07  5.79163754e+07  1.08e-03 1.35e-06  1.94e-10     1s
  48   5.79163754e+07  5.79163754e+07  1.08e-03 2.63e-07  9.24e-12     1s
  49   5.79163754e+07  5.79163754e+07  1.08e-03 1.66e-07  1.31e-12     1s
  50   5.79163754e+07  5.79163754e+07  1.08e-03 1.39e-05  1.32e-12     1s
  51   5.79163754e+07  5.79163754e+07  5.41e-04 1.38e-05  1.29e-12     1s
  52   5.79163754e+07  5.79163754e+07  5.41e-04 2.73e-05  3.35e-11     1s
  53   5.79163754e+07  5.79163754e+07  5.41e-04 2.09e-05  5.57e-10     1s
  54   5.79163754e+07  5.79163754e+07  1.62e-03 1.65e-08  1.98e-11     1s
  55   5.79163754e+07  5.79163754e+07  5.41e-04 8.60e-10  4.68e-12     1s
  56   5.79163754e+07  5.79163754e+07  5.41e-04 1.12e-04  8.22e-12     1s
  57   5.79163754e+07  5.79163754e+07  1.62e-03 5.82e-05  8.74e-11     1s
  58   5.79163754e+07  5.79163754e+07  1.62e-03 2.43e-05  7.67e-11     1s
  59   5.79163754e+07  5.79163754e+07  1.08e-03 1.21e-05  6.55e-11     1s
  60   5.79163754e+07  5.79163754e+07  1.08e-03 4.51e-08  1.62e-12     1s
  61   5.79163754e+07  5.79163754e+07  1.08e-03 1.43e-09  6.72e-14     1s
  62   5.79163754e+07  5.79163754e+07  5.41e-04 4.42e-10  9.17e-15     1s
  63   5.79163754e+07  5.79163754e+07  1.08e-03 7.86e-09  2.31e-16     1s
  64   5.79163754e+07  5.79163754e+07  1.08e-03 1.51e-02  5.32e-12     1s
  65   5.79163754e+07  5.79163754e+07  1.08e-03 1.33e-02  1.27e-13     1s
  66   5.79163754e+07  5.79163754e+07  1.08e-03 7.58e-02  9.09e-12     1s
  67   5.79163754e+07  5.79163754e+07  1.08e-03 8.28e-01  2.64e-09     1s
  68   5.79163754e+07  5.79163754e+07  1.08e-03 4.15e-01  1.59e-09     1s
  69   5.79163754e+07  5.79163754e+07  1.08e-03 8.85e-09  5.92e-11     1s
  70   5.79163754e+07  5.79163754e+07  5.41e-04 5.23e-09  1.32e-11     1s
  71   5.79163754e+07  5.79163754e+07  5.41e-04 2.04e-09  5.03e-13     1s
  72   5.79163754e+07  5.79163754e+07  1.08e-03 6.51e-10  6.30e-15     1s
  73   5.79163754e+07  5.79163754e+07  1.08e-03 1.85e-08  6.57e-15     1s
  74   5.79163754e+07  5.79163754e+07  1.08e-03 2.50e-02  5.01e-13     1s
  75   5.79163754e+07  5.79163754e+07  1.08e-03 4.25e-02  2.07e-10     1s
  76   5.79163754e+07  5.79163754e+07  1.08e-03 2.15e-02  7.01e-10     1s
  77   5.79163754e+07  5.79163754e+07  5.41e-04 2.04e-07  2.99e-11     1s
  78   5.79163754e+07  5.79163754e+07  1.08e-03 3.94e-15  1.09e-11     1s
  79   5.79163754e+07  5.79163754e+07  5.41e-04 8.28e-13  9.85e-12     1s
  80   5.79163754e+07  5.79163754e+07  1.62e-03 5.20e-06  6.44e-10     1s
  81   5.79163754e+07  5.79163754e+07  1.08e-03 8.69e-07  7.78e-13     1s
  82   5.79163754e+07  5.79163754e+07  5.41e-04 1.18e-13  1.70e-17     1s

Barrier solved model in 82 iterations and 0.54 seconds (0.13 work units)
Optimal objective 5.79163754e+07

Crossover time: 0.00 seconds (0.00 work units)

Root relaxation: objective 5.791638e+07, 119 iterations, 0.06 seconds (0.03 work units)

    Nodes    |    Current Node    |     Objective Bounds      |     Work
 Expl Unexpl |  Obj  Depth IntInf | Incumbent    BestBd   Gap | It/Node Time

     0     0 5.7916e+07    0  119          - 5.7916e+07      -     -    0s
     0     0 5.7916e+07    0  176          - 5.7916e+07      -     -    0s
     0     0 5.7916e+07    0  183          - 5.7916e+07      -     -    0s
     0     0 5.7916e+07    0  182          - 5.7916e+07      -     -    0s
     0     0 5.7916e+07    0  181          - 5.7916e+07      -     -    0s
     0     0 5.7916e+07    0  184          - 5.7916e+07      -     -    0s
     0     0 5.7916e+07    0  172          - 5.7916e+07      -     -    0s
     0     0 5.7916e+07    0  184          - 5.7916e+07      -     -    0s
     0     2 5.7916e+07    0  179          - 5.7916e+07      -     -    4s
    31    64 5.7916e+07    5  158          - 5.7916e+07      -   179    5s
 19303  3082 infeasible  168               - 5.7916e+07      -  16.8   10s
 23440  3243 5.7916e+07   35    0          - 5.7916e+07      -  15.4   19s
 23441  3247 5.7916e+07   10  170          - 5.7916e+07      -  15.4   20s
 35064  5260 5.7916e+07  123  151          - 5.7916e+07      -  22.7   25s
 66210  6079 5.7916e+07  212  151          - 5.7916e+07      -  14.1   30s
 99573  6599 5.7916e+07  288  151          - 5.7916e+07      -  10.1   35s
 132742  6912 5.7916e+07  361  151          - 5.7916e+07      -   8.0   40s
 165676  7239 5.7916e+07  435  151          - 5.7916e+07      -   6.7   45s
 194947  7719 5.7916e+07  507  151          - 5.7916e+07      -   6.1   50s
 224908  8252 5.7916e+07  577  151          - 5.7916e+07      -   5.5   55s
 245225  8742 infeasible  624               - 5.7916e+07      -   5.2   60s
 261181  9106 infeasible  666               - 5.7916e+07      -   4.9   65s
 281869  9533 5.7916e+07  716  151          - 5.7916e+07      -   4.6   70s
 301497  9999 5.7916e+07  766  151          - 5.7916e+07      -   4.4   76s
 316753 10357 infeasible  809               - 5.7916e+07      -   4.3   80s
 328623 10631 5.7916e+07  840  151          - 5.7916e+07      -   4.2   85s
 347079 11093 5.7916e+07  893  151          - 5.7916e+07      -   4.1   91s
 362247 11421 5.7916e+07  933  151          - 5.7916e+07      -   4.0   96s
 370319 11552 5.7916e+07  953  151          - 5.7916e+07      -   3.9  100s
 385349 11811 5.7916e+07  993  157          - 5.7916e+07      -   3.8  105s
 401675 12016 infeasible 1261               - 5.7916e+07      -   3.7  110s
 428217 12538 infeasible 1735               - 5.7916e+07      -   3.5  115s
 442062 12736 infeasible 2015               - 5.7916e+07      -   3.5  120s
 459942 12968 infeasible 2359               - 5.7916e+07      -   3.4  125s
 477747 13199 infeasible 2693               - 5.7916e+07      -   3.3  131s
 489298 13313 infeasible 2905               - 5.7916e+07      -   3.3  135s
 508784 13475 infeasible 3252               - 5.7916e+07      -   3.2  140s
 530293 13727 infeasible 3649               - 5.7916e+07      -   3.1  145s
 548854 13847 infeasible 3977               - 5.7916e+07      -   3.0  151s
 558357 13967 5.7916e+07 4168  140          - 5.7916e+07      -   3.0  156s
 569387 14114 5.7916e+07 4362  140          - 5.7916e+07      -   3.0  160s
 580470 14238 infeasible 4554               - 5.7916e+07      -   2.9  165s
 593949 14397 5.7916e+07 4802  140          - 5.7916e+07      -   2.9  170s
 606785 14528 5.7916e+07 5044  140          - 5.7916e+07      -   2.8  176s
 617537 14649 5.7916e+07 5228  140          - 5.7916e+07      -   2.8  180s
 633004 14775 5.7916e+07 5494  140          - 5.7916e+07      -   2.8  185s
 643545 14864 infeasible 5679               - 5.7916e+07      -   2.7  190s
 654422 15027 5.7916e+07 5870  140          - 5.7916e+07      -   2.7  195s
 660240 15524 5.7916e+07  429  151          - 5.7916e+07      -   2.8  200s
 664130 15843 5.7916e+07  445  151          - 5.7916e+07      -   2.9  206s
 668219 16146 5.7916e+07  461  151          - 5.7916e+07      -   2.9  210s
 674216 16537 5.7916e+07  484  151          - 5.7916e+07      -   3.0  215s
 680174 17037 5.7916e+07  506  151          - 5.7916e+07      -   3.1  220s
 687728 17775 5.7916e+07  538  151          - 5.7916e+07      -   3.2  227s
 691519 18105 infeasible  553               - 5.7916e+07      -   3.3  230s
 697350 18665 5.7916e+07  573  151          - 5.7916e+07      -   3.4  235s
 704369 19428 5.7916e+07  601  151          - 5.7916e+07      -   3.6  241s
 709609 20044 5.7916e+07  622  151          - 5.7916e+07      -   3.7  245s
 714627 20704 5.7916e+07  643  151          - 5.7916e+07      -   3.8  251s
 718399 21535 5.7916e+07  665  151          - 5.7916e+07      -   3.9  256s
 720705 22133 5.7916e+07  680  151          - 5.7916e+07      -   4.0  260s
 725666 23335 infeasible  710               - 5.7916e+07      -   4.2  266s
 729455 24249 5.7916e+07  732  151          - 5.7916e+07      -   4.3  270s
 735249 25472 5.7916e+07  760  151          - 5.7916e+07      -   4.5  275s
 741517 26529 5.7916e+07  788  151          - 5.7916e+07      -   4.7  280s
 747579 27674 5.7916e+07  819  151          - 5.7916e+07      -   4.8  286s
 752167 28521 5.7916e+07  845  129          - 5.7916e+07      -   4.9  291s
 756798 29319 5.7916e+07 1045  127          - 5.7916e+07      -   5.1  296s
 760150 29870 5.7916e+07 1190  127          - 5.7916e+07      -   5.1  300s
 765031 30666 infeasible 1410               - 5.7916e+07      -   5.3  305s
 770344 31493 infeasible 1632               - 5.7916e+07      -   5.4  310s
 775830 32326 5.7916e+07 1862  127          - 5.7916e+07      -   5.5  316s
 779125 32884 infeasible 2004               - 5.7916e+07      -   5.5  321s
 782306 33462 5.7916e+07 2156  127          - 5.7916e+07      -   5.6  326s
 786969 34390 infeasible 2380               - 5.7916e+07      -   5.7  331s
 788719 34690 5.7916e+07 2454  127          - 5.7916e+07      -   5.8  336s
 793886 35542 5.7916e+07 2686  127          - 5.7916e+07      -   5.9  340s
 799896 36386 5.7916e+07   50  113          - 5.7916e+07      -   6.0  346s
 804021 37020 5.7916e+07   89  113          - 5.7916e+07      -   6.0  350s
 808232 37642 5.9948e+07  130  159          - 5.7916e+07      -   6.1  355s
 812471 38279 5.7916e+07  169  113          - 5.7916e+07      -   6.1  360s
 817942 39351 5.7916e+07  229  113          - 5.7916e+07      -   6.2  365s
 822985 40422 5.7916e+07  291  113          - 5.7916e+07      -   6.3  371s
 828649 41485 5.7916e+07  352  113          - 5.7916e+07      -   6.4  376s
 834483 42486 5.7916e+07  413  113          - 5.7916e+07      -   6.5  381s
 838030 43225 5.7916e+07  448  113          - 5.7916e+07      -   6.6  386s
 844313 44312 5.7916e+07  509  113          - 5.7916e+07      -   6.7  390s
 854868 45990 5.7916e+07  613  113          - 5.7916e+07      -   6.8  395s
 864181 47651 5.7916e+07  718  113          - 5.7916e+07      -   6.9  400s
 873911 49211 5.7916e+07  822  113          - 5.7916e+07      -   7.1  406s
 881572 50587 5.7916e+07  907  113          - 5.7916e+07      -   7.2  410s
 889317 51860 5.7916e+07  992  113          - 5.7916e+07      -   7.3  415s
 896162 53165 5.7916e+07 1070  113          - 5.7916e+07      -   7.4  420s
 903645 54522 5.7916e+07 1157  113          - 5.7916e+07      -   7.5  425s
 910817 55878 5.7916e+07 1243  113          - 5.7916e+07      -   7.6  430s
 917447 57304 5.7916e+07 1331  113          - 5.7916e+07      -   7.8  435s
 924481 58582 5.9902e+07 1421  159          - 5.7916e+07      -   7.9  440s
 932583 60565 5.7916e+07 1533  113          - 5.7916e+07      -   8.1  445s
 938989 61899 5.7916e+07 1624  113          - 5.7916e+07      -   8.2  451s
 944554 62933 5.7916e+07 1692  113          - 5.7916e+07      -   8.3  455s
 952704 64278 5.7916e+07 1783  113          - 5.7916e+07      -   8.5  460s
 962962 66170 5.7916e+07 1897  113          - 5.7916e+07      -   8.6  466s
 969496 67240 5.7916e+07 1965  113          - 5.7916e+07      -   8.7  470s
 979623 68617 5.7916e+07 2056  113          - 5.7916e+07      -   8.8  476s
 987875 69705 5.9877e+07 2126  159          - 5.7916e+07      -   8.8  481s
 995613 70828 5.7916e+07 2194  113          - 5.7916e+07      -   8.8  485s
 1007709 72237 5.7916e+07 2286  113          - 5.7916e+07      -   8.9  491s
 1016463 73270 5.7916e+07 2354  113          - 5.7916e+07      -   8.9  495s
 1028767 74720 5.7916e+07 2439  113          - 5.7916e+07      -   8.9  500s
 1037681 75793 5.7916e+07 2509  113          - 5.7916e+07      -   9.0  505s
 1048841 77297 5.7916e+07 2603  112          - 5.7916e+07      -   9.0  510s
 1059098 78947 5.7916e+07 2689  112          - 5.7916e+07      -   9.1  515s
 1068400 80570 5.7916e+07 2783  112          - 5.7916e+07      -   9.1  520s
 1078408 82166 5.7916e+07 2878  112          - 5.7916e+07      -   9.2  525s
 1089260 83728 5.7916e+07 2973  112          - 5.7916e+07      -   9.3  530s
 1104737 85470 5.7916e+07 3091  112          - 5.7916e+07      -   9.3  535s
 1117854 86748 5.7916e+07 3186  112          - 5.7916e+07      -   9.3  541s
 1131819 88074 5.7916e+07 3282  112          - 5.7916e+07      -   9.3  547s
 1138729 88804 5.7916e+07 3330  112          - 5.7916e+07      -   9.3  550s
 1147465 89944 5.7916e+07 3402  112          - 5.7916e+07      -   9.3  556s
 1155941 91046 5.7916e+07 3474  112          - 5.7916e+07      -   9.3  562s
 1162271 91723 5.7916e+07 3521  112          - 5.7916e+07      -   9.3  565s
 1168001 92533 5.9823e+07 3569  159          - 5.7916e+07      -   9.4  570s
 1173748 93285 5.7916e+07 3616  112          - 5.7916e+07      -   9.4  575s
 1183657 94367 5.7916e+07 3687  112          - 5.7916e+07      -   9.4  581s
 1190665 95043 5.9817e+07 3734  159          - 5.7916e+07      -   9.4  586s
 1197675 95679 5.9815e+07 3781  159          - 5.7916e+07      -   9.4  591s
 1204731 96383 5.7916e+07 3828  112          - 5.7916e+07      -   9.4  596s
 1212261 96993 5.7916e+07 3876  112          - 5.7916e+07      -   9.4  600s

Cutting planes:
  RLT: 2

Explored 1215168 nodes (11378645 simplex iterations) in 600.11 seconds (58.88 work units)
Thread count was 32 (of 64 available processors)

Solution count 0

Time limit reached
Best objective -, best bound 5.791637540000e+07, gap -
Gurobi 13.0.0: time limit, without a feasible solution
1.13786e+07 simplex iterations
98 barrier iterations
1.21517e+06 branching nodes
Total cost using gurobi: 0.0
gurobi solve time: 600.82 seconds

-------------------------------- Solving Recover Model using cplex --------------------------
CPLEX 22.1.2: CPLEX 22.1.2: infeasible problem
0 simplex iterations

suffix dunbdd OUT;

Total absolute constraint violation: 1.23e+04

*******************************************************************************
HEAD-LOSS CONSTRAINT: ORIGINAL vs. APPROXIMATION

+-------------+--------+----------------------+--------------------+-----------------+-----------------+
| Arc (i,j)   |   Flow |   Original Violation |   Approx Violation |   Absolute Diff |   Relative Diff |
+=============+========+======================+====================+=================+=================+
| 1,17        |      0 |                    0 |                  0 |               0 |               0 |
+-------------+--------+----------------------+--------------------+-----------------+-----------------+
| 1,31        |      0 |                    0 |                  0 |               0 |               0 |
+-------------+--------+----------------------+--------------------+-----------------+-----------------+
| 2,3         |      0 |                    0 |                  0 |               0 |               0 |
+-------------+--------+----------------------+--------------------+-----------------+-----------------+
| 2,18        |      0 |                    0 |                  0 |               0 |               0 |
+-------------+--------+----------------------+--------------------+-----------------+-----------------+
| 3,4         |      0 |                    0 |                  0 |               0 |               0 |
+-------------+--------+----------------------+--------------------+-----------------+-----------------+
| 3,11        |      0 |                    0 |                  0 |               0 |               0 |
+-------------+--------+----------------------+--------------------+-----------------+-----------------+
| 4,5         |      0 |                    0 |                  0 |               0 |               0 |
+-------------+--------+----------------------+--------------------+-----------------+-----------------+
| 5,6         |      0 |                    0 |                  0 |               0 |               0 |
+-------------+--------+----------------------+--------------------+-----------------+-----------------+
| 5,13        |      0 |                    0 |                  0 |               0 |               0 |
+-------------+--------+----------------------+--------------------+-----------------+-----------------+
| 6,7         |      0 |                    0 |                  0 |               0 |               0 |
+-------------+--------+----------------------+--------------------+-----------------+-----------------+
| 7,24        |      0 |                    0 |                  0 |               0 |               0 |
+-------------+--------+----------------------+--------------------+-----------------+-----------------+
| 8,28        |      0 |                    0 |                  0 |               0 |               0 |
+-------------+--------+----------------------+--------------------+-----------------+-----------------+
| 9,36        |      0 |                    0 |                  0 |               0 |               0 |
+-------------+--------+----------------------+--------------------+-----------------+-----------------+
| 10,11       |      0 |                    0 |                  0 |               0 |               0 |
+-------------+--------+----------------------+--------------------+-----------------+-----------------+
| 10,32       |      0 |                    0 |                  0 |               0 |               0 |
+-------------+--------+----------------------+--------------------+-----------------+-----------------+
| 11,19       |      0 |                    0 |                  0 |               0 |               0 |
+-------------+--------+----------------------+--------------------+-----------------+-----------------+
| 11,26       |      0 |                    0 |                  0 |               0 |               0 |
+-------------+--------+----------------------+--------------------+-----------------+-----------------+
| 12,4        |      0 |                    0 |                  0 |               0 |               0 |
+-------------+--------+----------------------+--------------------+-----------------+-----------------+
| 12,13       |      0 |                    0 |                  0 |               0 |               0 |
+-------------+--------+----------------------+--------------------+-----------------+-----------------+
| 13,14       |      0 |                    0 |                  0 |               0 |               0 |
+-------------+--------+----------------------+--------------------+-----------------+-----------------+
| 14,20       |      0 |                    0 |                  0 |               0 |               0 |
+-------------+--------+----------------------+--------------------+-----------------+-----------------+
| 14,21       |      0 |                    0 |                  0 |               0 |               0 |
+-------------+--------+----------------------+--------------------+-----------------+-----------------+
| 15,16       |      0 |                    0 |                  0 |               0 |               0 |
+-------------+--------+----------------------+--------------------+-----------------+-----------------+
| 15,22       |      0 |                    0 |                  0 |               0 |               0 |
+-------------+--------+----------------------+--------------------+-----------------+-----------------+
| 16,25       |      0 |                    0 |                  0 |               0 |               0 |
+-------------+--------+----------------------+--------------------+-----------------+-----------------+
| 16,29       |      0 |                    0 |                  0 |               0 |               0 |
+-------------+--------+----------------------+--------------------+-----------------+-----------------+
| 17,2        |      0 |                    0 |                  0 |               0 |               0 |
+-------------+--------+----------------------+--------------------+-----------------+-----------------+
| 17,18       |      0 |                    0 |                  0 |               0 |               0 |
+-------------+--------+----------------------+--------------------+-----------------+-----------------+
| 18,10       |      0 |                    0 |                  0 |               0 |               0 |
+-------------+--------+----------------------+--------------------+-----------------+-----------------+
| 19,12       |      0 |                    0 |                  0 |               0 |               0 |
+-------------+--------+----------------------+--------------------+-----------------+-----------------+
| 19,20       |      0 |                    0 |                  0 |               0 |               0 |
+-------------+--------+----------------------+--------------------+-----------------+-----------------+
| 20,15       |      0 |                    0 |                  0 |               0 |               0 |
+-------------+--------+----------------------+--------------------+-----------------+-----------------+
| 21,6        |      0 |                    0 |                  0 |               0 |               0 |
+-------------+--------+----------------------+--------------------+-----------------+-----------------+
| 21,22       |      0 |                    0 |                  0 |               0 |               0 |
+-------------+--------+----------------------+--------------------+-----------------+-----------------+
| 22,7        |      0 |                    0 |                  0 |               0 |               0 |
+-------------+--------+----------------------+--------------------+-----------------+-----------------+
| 22,23       |      0 |                    0 |                  0 |               0 |               0 |
+-------------+--------+----------------------+--------------------+-----------------+-----------------+
| 23,25       |      0 |                    0 |                  0 |               0 |               0 |
+-------------+--------+----------------------+--------------------+-----------------+-----------------+
| 24,8        |      0 |                    0 |                  0 |               0 |               0 |
+-------------+--------+----------------------+--------------------+-----------------+-----------------+
| 24,23       |      0 |                    0 |                  0 |               0 |               0 |
+-------------+--------+----------------------+--------------------+-----------------+-----------------+
| 25,8        |      0 |                    0 |                  0 |               0 |               0 |
+-------------+--------+----------------------+--------------------+-----------------+-----------------+
| 26,15       |      0 |                    0 |                  0 |               0 |               0 |
+-------------+--------+----------------------+--------------------+-----------------+-----------------+
| 26,27       |      0 |                    0 |                  0 |               0 |               0 |
+-------------+--------+----------------------+--------------------+-----------------+-----------------+
| 27,16       |      0 |                    0 |                  0 |               0 |               0 |
+-------------+--------+----------------------+--------------------+-----------------+-----------------+
| 28,9        |      0 |                    0 |                  0 |               0 |               0 |
+-------------+--------+----------------------+--------------------+-----------------+-----------------+
| 28,29       |      0 |                    0 |                  0 |               0 |               0 |
+-------------+--------+----------------------+--------------------+-----------------+-----------------+
| 29,30       |      0 |                    0 |                  0 |               0 |               0 |
+-------------+--------+----------------------+--------------------+-----------------+-----------------+
| 29,33       |      0 |                    0 |                  0 |               0 |               0 |
+-------------+--------+----------------------+--------------------+-----------------+-----------------+
| 30,9        |      0 |                    0 |                  0 |               0 |               0 |
+-------------+--------+----------------------+--------------------+-----------------+-----------------+
| 30,35       |      0 |                    0 |                  0 |               0 |               0 |
+-------------+--------+----------------------+--------------------+-----------------+-----------------+
| 31,10       |      0 |                    0 |                  0 |               0 |               0 |
+-------------+--------+----------------------+--------------------+-----------------+-----------------+
| 31,34       |      0 |                    0 |                  0 |               0 |               0 |
+-------------+--------+----------------------+--------------------+-----------------+-----------------+
| 32,27       |      0 |                    0 |                  0 |               0 |               0 |
+-------------+--------+----------------------+--------------------+-----------------+-----------------+
| 32,33       |      0 |                    0 |                  0 |               0 |               0 |
+-------------+--------+----------------------+--------------------+-----------------+-----------------+
| 33,34       |      0 |                    0 |                  0 |               0 |               0 |
+-------------+--------+----------------------+--------------------+-----------------+-----------------+
| 34,35       |      0 |                    0 |                  0 |               0 |               0 |
+-------------+--------+----------------------+--------------------+-----------------+-----------------+
| 35,36       |      0 |                    0 |                  0 |               0 |               0 |
+-------------+--------+----------------------+--------------------+-----------------+-----------------+
| 36,1        |      0 |                    0 |                  0 |               0 |               0 |
+-------------+--------+----------------------+--------------------+-----------------+-----------------+
| 37,1        |      0 |                  121 |                121 |               0 |               0 |
+-------------+--------+----------------------+--------------------+-----------------+-----------------+

Sum of original head-loss violation : 1.21e+02
Sum of approx  head-loss violation  : 1.21e+02
Sum of absolute diff (orig vs approx): 0.00e+00
Sum of relative diff (orig vs approx): 0.00e+00

*******************************************************************************

Total Cost: 0.0
cplex solve time: 0.01 seconds
